language ESSENCE' 1.0
$ Minion SolverNodes: 11
$ Minion SolverTotalTime: 0.017108
$ Minion SolverTimeOut: 0
$ Savile Row TotalTime: 0.553
letting carrying be [8, 8, 9, 5, 5, 3, 3, 3, 12, 12]
letting registers be [[-1, -1, -1, -1, -1, -1, -1, -1, -1, -1], 
[-1, -1, -1, -1, -1, -1, 3, 3, 3, 3]]
letting steps be [1, 2, 1, 1, 2, 1, 4, 3, 1, 2]
